
Log started (V12.10.0.0) Tue Apr 20 04:27:46 2021


Problem 'asset.lp' read.
Read time = 0.01 sec. (0.37 ticks)
New value for default parallel thread count: 1
New value for time limit in seconds: 150
Version identifier: 12.10.0.0 | 2019-11-26 | 843d4de
CPXPARAM_Threads                                 1
CPXPARAM_TimeLimit                               150
Found incumbent of value 0.000000 after 0.00 sec. (0.09 ticks)
Tried aggregator 3 times.
MIP Presolve eliminated 1660 rows and 251 columns.
MIP Presolve modified 2648 coefficients.
Aggregator did 944 substitutions.
Reduced MIP has 1222 rows, 1378 columns, and 5892 nonzeros.
Reduced MIP has 1197 binaries, 139 generals, 0 SOSs, and 0 indicators.
Presolve time = 0.02 sec. (13.78 ticks)
Probing fixed 358 vars, tightened 50 bounds.
Probing time = 0.01 sec. (5.47 ticks)
Cover probing fixed 0 vars, tightened 123 bounds.
Tried aggregator 3 times.
MIP Presolve eliminated 540 rows and 475 columns.
MIP Presolve modified 289 coefficients.
Aggregator did 7 substitutions.
Reduced MIP has 675 rows, 893 columns, and 3165 nonzeros.
Reduced MIP has 772 binaries, 86 generals, 0 SOSs, and 0 indicators.
Presolve time = 0.01 sec. (7.45 ticks)
Probing time = 0.00 sec. (2.57 ticks)
Cover probing fixed 0 vars, tightened 6 bounds.
Tried aggregator 1 time.
Detecting symmetries...
MIP Presolve modified 448 coefficients.
Reduced MIP has 675 rows, 893 columns, and 3165 nonzeros.
Reduced MIP has 772 binaries, 86 generals, 0 SOSs, and 0 indicators.
Presolve time = 0.00 sec. (2.25 ticks)
Probing time = 0.00 sec. (2.53 ticks)
Clique table members: 2220.
MIP emphasis: balance optimality and feasibility.
MIP search method: dynamic search.
Parallel mode: none, using 1 thread.
Root relaxation solution time = 0.01 sec. (10.01 ticks)

        Nodes                                         Cuts/
   Node  Left     Objective  IInf  Best Integer    Best Bound    ItCnt     Gap

*     0+    0                            0.0000      640.0000              --- 
      0     0      409.9769   118        0.0000      409.9769      592     --- 
      0     0      395.3462   118        0.0000     Cuts: 244      786     --- 
      0     0      392.4971   118        0.0000     Cuts: 171     1007     --- 
      0     0      390.4771   118        0.0000     Cuts: 148     1109     --- 
      0     0      389.5663   118        0.0000      Cuts: 99     1209     --- 
      0     0      387.2728   118        0.0000      Cuts: 83     1332     --- 
Detecting symmetries...
      0     0      386.9311   118        0.0000     Cuts: 100     1403     --- 
      0     0      386.1307   118        0.0000      Cuts: 62     1531     --- 
      0     0      384.2028   118        0.0000      Cuts: 95     1647     --- 
      0     0      382.7786   118        0.0000      Cuts: 61     1797     --- 
      0     0      381.8980   118        0.0000     Cuts: 120     1915     --- 
      0     0      381.7176   118        0.0000     Cuts: 100     2004     --- 
      0     0      381.4024   118        0.0000     Cuts: 115     2086     --- 
      0     0      380.2645   118        0.0000     Cuts: 119     2213     --- 
      0     0      378.9662   118        0.0000     Cuts: 127     2371     --- 
      0     0      378.8055   118        0.0000      Cuts: 85     2489     --- 
      0     0      378.6147   118        0.0000      Cuts: 99     2559     --- 
*     0+    0                           25.0000      378.6147              --- 
      0     0        cutoff             25.0000      378.6147     2559     --- 
      0     0      378.3374   118       25.0000      Cuts: 68     2624     --- 
      0     0      377.8351   118       25.0000      Cuts: 82     2796     --- 
      0     0      376.9817   118       25.0000     Cuts: 114     2943     --- 
      0     0      376.1203   118       25.0000     Cuts: 130     3085     --- 
      0     0      375.7515   118       25.0000      Cuts: 55     3141     --- 
      0     0      375.7241   118       25.0000      Cuts: 58     3197     --- 
      0     0      375.3663   118       25.0000      Cuts: 37     3260     --- 
      0     0      374.8984   118       25.0000      Cuts: 93     3343     --- 
      0     0      374.8930   118       25.0000      Cuts: 59     3384     --- 
*     0+    0                           90.0000      374.8930           316.55%
*     0+    0                          140.0000      374.8930           167.78%
*     0+    0                          145.0000      374.8930           158.55%
*     0+    0                          150.0000      374.8930           149.93%
*     0+    0                          160.0000      374.8930           134.31%
      0     0        cutoff            160.0000      374.8930     3384  134.31%
Detecting symmetries...
      0     2      374.8930   164      160.0000      374.8930     3384  134.31%
Elapsed time = 0.44 sec. (422.55 ticks, tree = 0.01 MB, solutions = 6)
*    80+   59                          270.0000      374.2753            38.62%
*   100+   77                          315.0000      374.2753            18.82%
*   130+  102                          320.0000      374.2753            16.96%
    155   126      364.1655   124      320.0000      374.1233     8517   16.91%
    300   256      330.6444    99      320.0000      373.8967    13317   16.84%
    489   424      371.1911   104      320.0000      373.8769    18654   16.84%

Performing restart 1

Repeating presolve.
Tried aggregator 1 time.
MIP Presolve modified 526 coefficients.
Reduced MIP has 675 rows, 893 columns, and 2803 nonzeros.
Reduced MIP has 772 binaries, 86 generals, 0 SOSs, and 0 indicators.
Presolve time = 0.00 sec. (2.83 ticks)
Tried aggregator 1 time.
Reduced MIP has 675 rows, 893 columns, and 2803 nonzeros.
Reduced MIP has 772 binaries, 86 generals, 0 SOSs, and 0 indicators.
Presolve time = 0.00 sec. (2.21 ticks)
Represolve time = 0.02 sec. (16.17 ticks)
    497     0      366.2129   152      320.0000     Cuts: 240    20148   14.44%
    497     0      360.5700   152      320.0000     Cuts: 142    20403   12.68%
    497     0      357.7195   152      320.0000     Cuts: 122    20552   11.79%
    497     0      356.8049   152      320.0000     Cuts: 156    20698   11.50%
    497     0      354.7479   152      320.0000     Cuts: 109    20891   10.86%
    497     0      352.7958   152      320.0000     Cuts: 125    21036   10.25%
    497     0      351.8288   152      320.0000     Cuts: 101    21144    9.95%
    497     0      351.0068   152      320.0000     Cuts: 115    21379    9.69%
    497     0      350.4852   152      320.0000      Cuts: 98    21484    9.53%
    497     0      349.8822   152      320.0000      Cuts: 89    21580    9.34%
    497     0      349.5555   152      320.0000      Cuts: 65    21634    9.24%
    497     0      349.3811   152      320.0000      Cuts: 64    21727    9.18%
    497     0      349.1165   152      320.0000      Cuts: 76    21822    9.10%
    497     0      348.2000   152      320.0000      Cuts: 68    21914    8.81%
    497     0      348.1876   152      320.0000      Cuts: 78    22021    8.81%
    497     0      348.0625   152      320.0000      Cuts: 55    22084    8.77%
    497     0      347.9583   152      320.0000      Cuts: 31    22115    8.74%
    497     0      347.7500   152      320.0000      Cuts: 41    22191    8.67%
    497     0      347.6735   152      320.0000      Cuts: 62    22237    8.65%
    497     0      347.1810   152      320.0000      Cuts: 41    22290    8.49%
    497     0      346.5080   152      320.0000      Cuts: 78    22407    8.28%
    497     0      346.0613   152      320.0000      Cuts: 58    22452    8.14%
    497     0      345.4181   152      320.0000      Cuts: 41    22481    7.94%
    497     0      345.0481   152      320.0000      Cuts: 39    22517    7.83%
    497     0      344.5614   152      320.0000      Cuts: 32    22613    7.68%
    497     0      344.4308   152      320.0000      Cuts: 57    22696    7.63%
    497     0      344.3590   152      320.0000      Cuts: 83    22751    7.61%
    497     0      344.3333   152      320.0000      Cuts: 86    22800    7.60%
    497     0      344.3333   152      320.0000      Cuts: 45    22845    7.60%
*   497+    0                          330.0000      344.3333             4.34%
    497     0      344.1667   152      330.0000      Cuts: 34    23053    4.29%
    497     0      344.1667   152      330.0000      Cuts: 96    23119    4.29%
*   497+    0                          335.0000      344.1667             2.74%

Repeating presolve.
Tried aggregator 3 times.
MIP Presolve eliminated 300 rows and 329 columns.
MIP Presolve modified 315 coefficients.
Aggregator did 14 substitutions.
Reduced MIP has 361 rows, 550 columns, and 2335 nonzeros.
Reduced MIP has 473 binaries, 50 generals, 0 SOSs, and 0 indicators.
Presolve time = 0.01 sec. (4.84 ticks)
Tried aggregator 3 times.
MIP Presolve eliminated 21 rows and 25 columns.
MIP Presolve modified 16 coefficients.
Aggregator did 2 substitutions.
Reduced MIP has 338 rows, 523 columns, and 2253 nonzeros.
Reduced MIP has 453 binaries, 46 generals, 0 SOSs, and 0 indicators.
Presolve time = 0.00 sec. (1.66 ticks)
Tried aggregator 1 time.
Reduced MIP has 338 rows, 523 columns, and 2253 nonzeros.
Reduced MIP has 453 binaries, 46 generals, 0 SOSs, and 0 indicators.
Presolve time = 0.00 sec. (1.54 ticks)
Represolve time = 0.05 sec. (37.34 ticks)
    497     0      344.1667    83      335.0000     Cuts: 123    23970    2.74%
    497     0      343.7500    83      335.0000      Cuts: 47    24033    2.61%
    497     0      343.5484    83      335.0000      Cuts: 76    24112    2.55%
    497     0      343.4267    83      335.0000      Cuts: 98    24237    2.52%
    497     0      343.4218    83      335.0000     Cuts: 103    24339    2.51%
    497     0      343.4074    83      335.0000      Cuts: 77    24525    2.51%
    497     0      343.4055    83      335.0000     Cuts: 118    24599    2.51%
    497     0      343.3880    83      335.0000      Cuts: 57    24673    2.50%
    497     0      343.3880    83      335.0000      Cuts: 82    24701    2.50%
    497     0      343.3715    83      335.0000      Cuts: 20    24743    2.50%
    497     0      343.3633    83      335.0000      Cuts: 98    24771    2.50%
    497     0      343.3584    83      335.0000      Cuts: 52    24817    2.50%
    497     0      343.3584    83      335.0000       Cuts: 5    24823    2.50%
    497     0      343.3584    83      335.0000      Cuts: 50    24875    2.50%
    497     2      343.2500    96      335.0000      343.2500    24875    2.46%
    508     5      342.5000    83      335.0000      342.5000    25599    2.24%
    579    37      340.0000    57      335.0000      342.5000    27124    2.24%
*   668     0      integral     0      340.0000      342.0000    28922    0.59%

GUB cover cuts applied:  4
Clique cuts applied:  65
Cover cuts applied:  8
Implied bound cuts applied:  7
Flow cuts applied:  4
Mixed integer rounding cuts applied:  11
Zero-half cuts applied:  57
Lift and project cuts applied:  7
Gomory fractional cuts applied:  1

Root node processing (before b&c):
  Real time             =    0.44 sec. (422.78 ticks)
Sequential b&c:
  Real time             =    3.18 sec. (3289.98 ticks)
                          ------------
Total (root+branch&cut) =    3.62 sec. (3712.76 ticks)

Solution pool: 13 solutions saved.

MIP - Integer optimal solution:  Objective =  3.4000000000e+02
Solution time =    3.62 sec.  Iterations = 28922  Nodes = 669
Deterministic time = 3712.77 ticks  (1025.16 ticks/sec)


Incumbent solution
Variable Name           Solution Value
F                           340.000000
y187                          1.000000
y306                          1.000000
y198                          1.000000
y5                            1.000000
y24                           1.000000
y179                          1.000000
y125                          1.000000
y12                           1.000000
y52                           1.000000
y293                          1.000000
y285                          1.000000
y126                          1.000000
y105                          1.000000
y84                           1.000000
y227                          1.000000
y123                          1.000000
y196                          1.000000
y304                          1.000000
y153                          1.000000
y232                          1.000000
y295                          1.000000
y28                           1.000000
x287x293x1                    1.000000
x208x5x1                      1.000000
x17x24x1                      1.000000
x70x24x1                      1.000000
x70x179x1                     1.000000
x122x12x1                     1.000000
x151x179x1                    1.000000
x299x105x1                    1.000000
x251x187x1                    1.000000
x287x293x2                    1.000000
x208x12x2                     1.000000
x17x306x2                     1.000000
x222x198x2                    2.000000
x228x126x2                    1.000000
x228x84x2                     1.000000
x176x306x2                    1.000000
x151x52x2                     1.000000
x176x5x3                      1.000000
x149x125x3                    2.000000
x21x52x3                      1.000000
x21x285x3                     1.000000
x299x84x3                     1.000000
x251x187x3                    1.000000
x214x285x3                    1.000000
x214x126x3                    1.000000
x187x0x1                      1.000000
x187x304x3                    1.000000
x306x28x2                     2.000000
x198x295x2                    2.000000
x5x232x1                      1.000000
x5x123x3                      1.000000
x24x153x1                     1.000000
x24x232x1                     1.000000
x179x196x1                    1.000000
x179x304x1                    1.000000
x125x0x3                      2.000000
x12x227x1                     1.000000
x12x227x2                     1.000000
x52x153x2                     1.000000
x52x123x3                     1.000000
x293x105x1                    1.000000
x293x196x2                    1.000000
x285x0x3                      2.000000
x126x0x2                      1.000000
x126x0x3                      1.000000
x105x0x1                      2.000000
x84x0x2                       1.000000
x84x0x3                       1.000000
x227x0x1                      1.000000
x227x0x2                      1.000000
x123x0x3                      2.000000
x196x0x1                      1.000000
x196x0x2                      1.000000
x304x0x1                      1.000000
x304x0x3                      1.000000
x153x0x1                      1.000000
x153x0x2                      1.000000
x232x0x1                      2.000000
x295x0x2                      2.000000
x28x0x2                       2.000000
s287                          5.922817
s246                          6.660000
s281                          7.689368
s178                          6.920000
s93                           7.232736
s306                          7.940768
s198                          7.984636
s5                            7.736252
s119                          7.100000
s230                          7.256654
s134                          7.406330
s250                          8.176892
s24                           8.193334
s220                          7.250000
s179                          8.213692
s115                          8.221426
s168                          7.320000
s12                           7.844288
s52                           8.237496
s133                          7.380000
s66                           7.919583
s233                          7.440000
s272                          7.440000
s245                          8.414208
s265                          7.480000
s280                          8.520000
s293                          7.812902
z287z293z1                    1.000000
z287z293z2                    1.000000
s137                          8.540000
s11                           7.570000
s199                          8.620000
s79                           8.660000
s173                          8.680000
s71                           8.710000
s195                          7.780000
s20                           7.839857
z287z20z2                     1.000000
s126                          8.830000
s35                           8.890000
z287z35z1                     1.000000
s105                          8.910000
z287z105z1                    1.000000
s84                           8.516099
s68                           9.000000
z287z68z1                     1.000000
s227                          9.030000
s221                          8.254297
s196                          9.410000
s304                          9.420000
s153                          9.460000
s232                          9.460000
z287z232z1                    1.000000
s295                          9.460000
z287z295z2                    1.000000
s28                           9.490000
z287z28z2                     1.000000
s208                          5.886622
s187                          7.778049
z208z5z1                      1.000000
z208z12z2                     1.000000
z208z199z1                    1.000000
z208z173z2                    1.000000
z208z20z2                     1.000000
z208z35z1                     1.000000
z208z105z1                    1.000000
z208z68z1                     1.000000
z208z221z2                    1.000000
z208z232z1                    1.000000
z208z295z2                    1.000000
z208z28z2                     1.000000
s17                           6.684907
z17z306z2                     1.000000
z17z24z1                      1.000000
z17z35z1                      1.000000
z17z105z1                     1.000000
z17z68z1                      1.000000
z17z232z1                     1.000000
z17z295z2                     1.000000
z17z28z2                      1.000000
s70                           6.920000
z70z24z1                      1.000000
z70z179z1                     1.000000
z70z115z1                     1.000000
z70z35z1                      1.000000
z70z105z1                     1.000000
z70z68z1                      1.000000
z70z232z1                     1.000000
s122                          5.792221
z122z24z1                     1.000000
z122z179z1                    1.000000
z122z115z1                    1.000000
z122z12z1                     1.000000
z122z199z1                    1.000000
z122z195z1                    1.000000
z122z35z1                     1.000000
z122z105z1                    1.000000
z122z68z1                     1.000000
z122z232z1                    1.000000
s222                          6.763333
z222z198z2                    1.000000
z222z79z2                     1.000000
z222z295z2                    1.000000
z222z28z2                     1.000000
s228                          6.830552
z228z79z2                     1.000000
z228z126z2                    1.000000
z228z84z2                     1.000000
z228z295z2                    1.000000
z228z28z2                     1.000000
s176                          6.530440
z176z306z2                    1.000000
s54                           7.010000
z176z5z3                      1.000000
s125                          8.300000
s188                          8.770000
s285                          8.655908
s135                          8.830000
s123                          9.400000
z176z123z3                    1.000000
z176z295z2                    1.000000
z176z28z2                     1.000000
s149                          6.931449
z149z125z3                    1.000000
z149z188z3                    1.000000
z149z285z3                    1.000000
z149z135z3                    1.000000
z149z123z3                    1.000000
s151                          6.971661
z151z179z1                    1.000000
z151z52z2                     1.000000
z151z35z1                     1.000000
z151z105z1                    1.000000
z151z68z1                     1.000000
z151z232z1                    1.000000
z151z295z2                    1.000000
z151z28z2                     1.000000
s21                           7.036062
z21z52z3                      1.000000
z21z188z3                     1.000000
z21z285z3                     1.000000
z21z135z3                     1.000000
z21z123z3                     1.000000
s299                          7.133020
z299z35z1                     1.000000
z299z105z1                    1.000000
z299z84z3                     1.000000
z299z68z1                     1.000000
z299z123z3                    1.000000
z299z232z1                    1.000000
s251                          6.668848
z251z187z1                    1.000000
z251z187z3                    1.000000
z251z35z1                     1.000000
z251z105z1                    1.000000
z251z68z1                     1.000000
z251z123z3                    1.000000
z251z232z1                    1.000000
s214                          7.347462
z214z188z3                    1.000000
z214z285z3                    1.000000
z214z126z3                    1.000000
z214z135z3                    1.000000
z214z123z3                    1.000000
s56                           6.560000
z246z295z2                    1.000000
z246z28z2                     1.000000
z281z232z1                    1.000000
z187z123z3                    1.000000
z187z304z3                    1.000000
z187z232z1                    1.000000
z178z232z1                    1.000000
z178z295z2                    1.000000
z178z28z2                     1.000000
z93z123z3                     1.000000
z93z295z2                     1.000000
z93z28z2                      1.000000
z306z295z2                    1.000000
z306z28z2                     1.000000
z198z295z2                    1.000000
z198z28z2                     1.000000
z54z123z3                     1.000000
z5z123z3                      1.000000
z5z232z1                      1.000000
z119z232z1                    1.000000
z119z295z2                    1.000000
z119z28z2                     1.000000
z230z123z3                    1.000000
z230z232z1                    1.000000
z134z35z1                     1.000000
z134z105z1                    1.000000
z134z68z1                     1.000000
z250z123z3                    1.000000
z250z295z2                    1.000000
z250z28z2                     1.000000
z24z153z1                     1.000000
z24z232z1                     1.000000
z220z295z2                    1.000000
z220z28z2                     1.000000
z179z196z1                    1.000000
z179z304z1                    1.000000
z179z232z1                    1.000000
z115z232z1                    1.000000
z12z227z1                     1.000000
z12z227z2                     1.000000
z52z123z3                     1.000000
z52z153z2                     1.000000
z293z105z1                    1.000000
z293z196z2                    1.000000
z195z68z1                     1.000000
z221z28z2                     1.000000
All other variables in the range 1-2580 are 0.
